cost: 1126.12
Route 1:           0    2   14   45   30   48   18    0
Route 2:           0    8   31   27   19    0
Route 3:           0   17    3   40   42    5   11    0
Route 4:           0   20   13    4   39    6    0
Route 5:           0   23   21    7   49   15   34    0
Route 6:           0   28   25   36   33    0
Route 7:           0   43   32   12   10    9   47    0
Route 8:           0   46   26   41   16   37    1   35    0
Route 9:           0   50   44   29   22   24   38    0
